instances/p1/p1_10_20-3.dzn
Alphabet = {A,C,G,T};
ns = 10;
nc = 20;
neighbours = [| I(C),I(A),I(C),I(A),I(C),I(A),I(A),I(A),I(A),I(C),I(A),I(A),I(A),I(A),I(A),I(A),I(A),I(A),I(C),I(A) | I(C),I(A),I(A),I(A),I(C),I(C),I(A),I(C),I(G),I(A),I(C),I(C),I(A),I(A),I(A),I(A),I(A),I(C),I(A),I(C) | I(A),I(A),I(C),I(A),I(C),I(A),I(A),I(A),I(A),I(A),I(C),I(A),I(A),I(C),I(A),I(C),I(A),I(A),I(A),I(G) | I(C),I(A),I(A),I(A),I(A),I(A),I(A),I(A),I(C),I(A),I(A),I(A),I(G),I(A),I(A),I(A),I(A),I(C),I(A),I(A) | I(A),I(A),I(A),I(A),I(A),I(A),I(A),I(A),I(A),I(A),I(A),I(A),I(A),I(A),I(A),I(A),I(A),I(A),I(A),I(C) | I(A),I(C),I(C),I(C),I(A),I(C),I(A),I(A),I(A),I(C),I(A),I(A),I(C),I(A),I(A),I(A),I(G),I(A),I(A),I(C) | I(A),I(C),I(G),I(G),I(A),I(A),I(C),I(A),I(A),I(A),I(A),I(G),I(A),I(A),I(A),I(A),I(G),I(A),I(A),I(A) | I(A),I(A),I(C),I(A),I(C),I(A),I(C),I(C),I(A),I(C),I(G),I(C),I(G),I(A),I(A),I(C),I(C),I(A),I(C),I(A) | I(A),I(A),I(A),I(A),I(A),I(A),I(C),I(A),I(A),I(A),I(C),I(A),I(A),I(A),I(A),I(A),I(A),I(A),I(C),I(A) | I(A),I(C),I(C),I(A),I(C),I(A),I(A),I(A),I(A),I(C),I(C),I(A),I(C),I(C),I(C),I(A),I(A),I(A),I(A),I(A) |];
