instances/p1/p1_10_20-3.txt
{
	"num_strings": 10,
	"alphabet": "ACGT",
	"strings": [
		"CACACAAAACAAAAAAAACA",
		"CAAACCACGACCAAAAACAC",
		"AACACAAAAACAACACAAAG",
		"CAAAAAAACAAAGAAAACAA",
		"AAAAAAAAAAAAAAAAAAAC",
		"ACCCACAAACAACAAAGAAC",
		"ACGGAACAAAAGAAAAGAAA",
		"AACACACCACGCGAACCACA",
		"AAAAAACAAACAAAAAAACA",
		"ACCACAAAACCACCCAAAAA"
	],
	"str_length":[20,20,20,20,20,20,20,20,20,20]
}